n = 12;
k = 9;
initial_occ = array2d(CELL_DOMAIN, CELL_DOMAIN, [ 1, 0, 0, 0, 0, 1, 0, 0, 0, 0, 0, 0,
												  0, 0, 1, 0, 0, 0, 0, 0, 0, 0, 0, 0,
												  0, 0, 0, 0, 0, 0, 0, 0, 0, 0, 0, 0,
												  0, 0, 0, 0, 0, 0, 0, 0, 0, 0, 0, 0,
												  0, 0, 0, 0, 0, 1, 0, 0, 0, 0, 0, 0,
												  0, 0, 0, 0, 0, 0, 0, 0, 0, 1, 0, 0,
												  0, 0, 0, 0, 0, 0, 0, 0, 0, 0, 1, 0,
												  0, 0, 0, 0, 1, 0, 0, 0, 0, 0, 0, 0,
												  0, 0, 0, 0, 0, 0, 0, 0, 0, 0, 0, 0,
												  0, 0, 2, 0, 0, 0, 0, 0, 0, 0, 0, 0,
												  0, 0, 0, 0, 1, 1, 0, 0, 0, 0, 0, 3,
												  0, 0, 0, 0, 0, 0, 0, 0, 0, 0, 0, 0,
												 ]);